163 300 231 245 233 250 231 244 224 240 242 237 213 233 248 205 237 236 241 221 209 204 235 244 250 227 216 209 243 217 220 231 226 225 200 233 249 205 226 222 245 242 208 207 249 205 237 236 215 228 231 249 232 215 216 205 217 206 214 209 224 208 214 224 233 239 206 231 244 206 228 238 248 236 220 246 216 206 205 205 234 236 204 216 201 245 221 243 201 210 226 250 218 240 223 201 229 203 206 222 209 234 235 231 245 204 226 235 210 206 240 219 242 218 235 217 213 230 209 239 240 235 238 233 250 235 208 202 238 214 249 247 223 207 201 242 211 201 226 247 207 240 215 250 208 224 216 246 203 200 234 218 235 246 200 208 230 208 210 217 247 234 238 244 241 